150 7329
1 98 103 82 95 107 5 100 143 97 124 8 30 63 48 88 21 44 64 112 136 145 147 23 67 43 109 51 110 81 29 2 37 42 9 28 6 19 99 114 102 108 70 135 86 58 55 50 137 132 65 85 142 18 75 26 146 56 90 46 138 134 54 92 105 111 16 133 15 122 77 131 32 38 116 101 39 57 41 129 144 49 72 14 80 78 59 79 121 94 10 113 3 62 149 125 22 104 4 150 115 71 45 128 91 68 119 106 13 74 123 31 27 117 140 60 66 17 130 148 11 61 36 69 127 118 12 24 53 40 139 120 47 20 25 141 83 33 126 93 52 35 96 89 84 7 34 73 76 87 
